(declare-sort Loc 0)
(declare-const f1734_0_remove_FieldAccess Loc)
(declare-const f1740_0_remove_FieldAccess Loc)
(declare-const f1753_0_remove_FieldAccess Loc)
(declare-const f1764_0_remove_FieldAccess Loc)
(declare-const f1755_0_remove_FieldAccess Loc)
(declare-const f1767_0_remove_FieldAccess Loc)
(declare-const f316_0_createList_Load Loc)
(declare-const f821_0_createList_Load Loc)
(declare-const f1_0_main_Load Loc)
(declare-const f1521_0_pollLast_NE Loc)
(declare-const f328_0_createList_Return Loc)
(declare-const f1712_0_remove_FieldAccess Loc)
(declare-const f1722_0_remove_FieldAccess Loc)
(declare-const f1495_0_createList_LE Loc)
(declare-const __init Loc)
(assert (distinct f1734_0_remove_FieldAccess f1740_0_remove_FieldAccess f1753_0_remove_FieldAccess f1764_0_remove_FieldAccess f1755_0_remove_FieldAccess f1767_0_remove_FieldAccess f316_0_createList_Load f821_0_createList_Load f1_0_main_Load f1521_0_pollLast_NE f328_0_createList_Return f1712_0_remove_FieldAccess f1722_0_remove_FieldAccess f1495_0_createList_LE __init ))

(define-fun cfg_init ( (pc Loc) (src Loc) (rel Bool) ) Bool
  (and (= pc src) rel))

(define-fun cfg_trans2 ( (pc Loc) (src Loc)
                         (pc1 Loc) (dst Loc)
                         (rel Bool) ) Bool
  (and (= pc src) (= pc1 dst) rel))

(define-fun cfg_trans3 ( (pc Loc) (exit Loc)
                         (pc1 Loc) (call Loc)
                         (pc2 Loc) (return Loc)
                         (rel Bool) ) Bool
  (and (= pc exit) (= pc1 call) (= pc2 return) rel))

(define-fun init_main ( (pc Loc) (arg1 Int) (arg2 Int) (arg3 Int) (arg4 Int) (arg5 Int) (arg6 Int) (arg7 Int) (arg8 Int) (arg9 Int) (arg10 Int) (arg11 Int) (arg12 Int) (arg13 Int) (arg14 Int) (arg15 Int) (arg16 Int) (arg17 Int) (arg18 Int) (arg19 Int) (arg20 Int) (arg21 Int) (arg22 Int) (arg23 Int) (arg24 Int) (arg25 Int) (arg26 Int) (arg27 Int) (arg28 Int) (arg29 Int) (arg30 Int) (arg31 Int) (arg32 Int) ) Bool
  (cfg_init pc __init true))

(define-fun next_main (
                 (pc Loc) (arg1 Int) (arg2 Int) (arg3 Int) (arg4 Int) (arg5 Int) (arg6 Int) (arg7 Int) (arg8 Int) (arg9 Int) (arg10 Int) (arg11 Int) (arg12 Int) (arg13 Int) (arg14 Int) (arg15 Int) (arg16 Int) (arg17 Int) (arg18 Int) (arg19 Int) (arg20 Int) (arg21 Int) (arg22 Int) (arg23 Int) (arg24 Int) (arg25 Int) (arg26 Int) (arg27 Int) (arg28 Int) (arg29 Int) (arg30 Int) (arg31 Int) (arg32 Int)
                 (pc1 Loc) (arg1P Int) (arg2P Int) (arg3P Int) (arg4P Int) (arg5P Int) (arg6P Int) (arg7P Int) (arg8P Int) (arg9P Int) (arg10P Int) (arg11P Int) (arg12P Int) (arg13P Int) (arg14P Int) (arg15P Int) (arg16P Int) (arg17P Int) (arg18P Int) (arg19P Int) (arg20P Int) (arg21P Int) (arg22P Int) (arg23P Int) (arg24P Int) (arg25P Int) (arg26P Int) (arg27P Int) (arg28P Int) (arg29P Int) (arg30P Int) (arg31P Int) (arg32P Int)
             ) Bool
  (or
    (cfg_trans2 pc f1734_0_remove_FieldAccess pc1 f1740_0_remove_FieldAccess (and (and (and (and (and (and (and (and (and (and (and (and (and (and (and (and (and (and (and (and (and (and (and (and (and (and (and (and (and (and (and (and (and (and (and (and (and (and (and (and (and (and (<= arg1P arg1) (<= (+ arg1P 5) arg2)) (>= arg3 (+ arg1P 4))) (>= arg4 arg1P)) (>= arg5 (+ arg1P 2))) (<= arg2P arg2)) (>= arg3 arg3P)) (>= arg4 arg4P)) (>= arg5 arg5P)) (> arg1 0)) (> arg2 5)) (> arg3 4)) (> arg4 0)) (> arg5 2)) (> arg1P 0)) (> arg2P 5)) (> arg3P 4)) (> arg4P 0)) (> arg5P 2)) (>= arg2 (+ arg11 5))) (>= arg2 (+ arg12 6))) (>= arg2 (+ arg13 3))) (>= arg3 (+ arg14 5))) (>= arg3 (+ arg15 4))) (>= arg3 (+ arg16 6))) (>= arg3 (+ arg17 6))) (>= arg3 (+ arg18 6))) (>= arg3 (+ arg19 2))) (>= arg3 (+ arg20 4))) (>= arg3 (+ arg21 4))) (>= arg3 (+ arg22 4))) (>= arg4 (+ arg23 2))) (>= arg4 (+ arg24 2))) (>= arg4 (+ arg25 2))) (>= arg5 (+ arg26 3))) (>= arg5 (+ arg27 2))) (>= arg5 (+ arg28 4))) (>= arg5 (+ arg30 4))) (>= arg5 (+ arg29 4))) (= arg6 arg6P)) (= arg7 arg7P)) (= arg8 arg8P)) (= arg9 arg9P)))
    (cfg_trans2 pc f1753_0_remove_FieldAccess pc1 f1764_0_remove_FieldAccess (and (and (and (and (and (and (and (and (and (and (and (and (and (and (and (and (and (and (and (and (and (and (and (and (and (and (and (and (and (and (and (and (and (and (and (and (and (and (and (and (and (and (and (and (<= arg1P arg1) (<= (+ arg1P 7) arg2)) (<= (+ arg1P 4) arg3)) (<= arg1P arg4)) (<= (+ arg1P 2) arg5)) (<= arg2P arg2)) (<= arg3P arg3)) (<= arg4P arg4)) (<= arg5P arg5)) (> arg1 0)) (> arg2 7)) (> arg3 4)) (> arg4 0)) (> arg5 2)) (> arg1P 0)) (> arg2P 7)) (> arg3P 4)) (> arg4P 0)) (> arg5P 2)) (<= (+ arg9 5) arg2)) (<= (+ arg10 8) arg2)) (<= (+ arg11 7) arg2)) (<= (+ arg12 9) arg2)) (<= (+ arg13 9) arg2)) (<= (+ arg14 9) arg2)) (<= (+ arg15 3) arg2)) (<= (+ arg16 5) arg3)) (<= (+ arg17 4) arg3)) (<= (+ arg18 6) arg3)) (<= (+ arg19 6) arg3)) (<= (+ arg20 6) arg3)) (<= (+ arg21 2) arg3)) (<= (+ arg22 4) arg3)) (<= (+ arg23 4) arg3)) (<= (+ arg24 4) arg3)) (<= (+ arg25 2) arg4)) (<= (+ arg26 2) arg4)) (<= (+ arg27 2) arg4)) (<= (+ arg28 3) arg5)) (<= (+ arg29 2) arg5)) (<= (+ arg30 4) arg5)) (<= (+ arg32 4) arg5)) (<= (+ arg31 4) arg5)) (= arg6 arg6P)) (= arg7 arg7P)))
    (cfg_trans2 pc f1755_0_remove_FieldAccess pc1 f1767_0_remove_FieldAccess (and (and (and (and (and (and (and (and (and (and (and (and (and (and (and (and (and (and (and (and (and (and (and (and (and (and (and (and (and (and (and (and (and (and (and (and (and (and (and (and (and (and (and (and (and (and (and (>= arg1 arg1P) (>= arg2 (+ arg1P 9))) (>= arg3 (+ arg1P 4))) (>= arg4 arg1P)) (>= arg5 (+ arg1P 4))) (>= arg2 arg2P)) (>= arg3 arg3P)) (>= arg4 arg4P)) (>= arg5 arg5P)) (> arg1 0)) (> arg2 9)) (> arg3 4)) (> arg4 0)) (> arg5 4)) (> arg1P 0)) (> arg2P 9)) (> arg3P 4)) (> arg4P 0)) (> arg5P 4)) (<= (+ arg7 5) arg2)) (<= (+ arg8 9) arg2)) (<= (+ arg9 11) arg2)) (<= (+ arg10 11) arg2)) (<= (+ arg11 11) arg2)) (<= (+ arg12 7) arg2)) (<= (+ arg13 9) arg2)) (<= (+ arg14 9) arg2)) (<= (+ arg15 9) arg2)) (<= (+ arg16 3) arg2)) (<= (+ arg17 4) arg3)) (<= (+ arg26 6) arg3)) (<= (+ arg27 6) arg3)) (<= (+ arg28 6) arg3)) (<= (+ arg18 2) arg3)) (<= (+ arg19 4) arg3)) (<= (+ arg20 4) arg3)) (<= (+ arg21 4) arg3)) (<= (+ arg22 2) arg4)) (>= arg4 (+ arg23 2))) (>= arg4 (+ arg24 2))) (>= arg5 (+ arg25 4))) (<= (+ arg26 6) arg5)) (<= (+ arg27 6) arg5)) (<= (+ arg28 6) arg5)) (>= arg5 (+ arg29 2))) (>= arg5 (+ arg30 4))) (>= arg5 (+ arg32 4))) (>= arg5 (+ arg31 4))))
    (cfg_trans2 pc f316_0_createList_Load pc1 f821_0_createList_Load (and (and (and (and (and (and (and (and (and (and (and (and (and (and (and (and (and (> arg2 9) (> arg2P 9)) (<= (+ arg6 5) arg2)) (<= (+ arg7 3) arg2)) (= arg1 arg1P)) (= 0 arg3P)) (= 0 arg4P)) (= arg4 arg5P)) (= arg6P arg7P)) (= 0 arg8P)) (= 0 arg9P)) (= 0 arg10P)) (= arg3 arg15P)) (= arg3 arg16P)) (= arg4 arg17P)) (= arg5 arg19P)) (= arg6 arg20P)) (= arg7 arg23P)))
    (cfg_trans2 pc f1_0_main_Load pc1 f1521_0_pollLast_NE (exists ((x137 Int)) (and (and (and (> x137 (- 1)) (> arg2 0)) (> arg1 0)) (> arg1P 6))))
    (cfg_trans2 pc f328_0_createList_Return pc1 f1521_0_pollLast_NE (and (and (and (and (and (and (and (and (and (> arg1 6) (> arg1P 6)) (<= (+ arg4 5) arg1)) (<= (+ arg5 7) arg1)) (<= (+ arg7 3) arg1)) (<= (+ arg6 7) arg1)) (= arg2 arg2P)) (= arg3 arg3P)) (= arg4 arg4P)) (= arg7 arg7P)))
    (cfg_trans2 pc f1521_0_pollLast_NE pc1 f1712_0_remove_FieldAccess (exists ((x161 Int) (x162 Int) (x163 Int) (x165 Int) (x164 Int) (x166 Int)) (and (and (and (and (and (and (and (and (and (and (and (and (and (and (and (and (and (and (and (> arg2 (- 1)) (> x161 0)) (< x162 arg2)) (< x161 arg3)) (< x163 1)) (> arg3 (- 1))) (< x165 x164)) (> arg4 0)) (> x164 (- 1))) (< arg3P 1)) (< x166 x161)) (> arg1 6)) (> arg1P 7)) (> arg2P 4)) (<= (+ arg4 5) arg1)) (<= (+ arg5 7) arg1)) (<= (+ arg7 3) arg1)) (<= (+ arg6 7) arg1)) (= arg4 arg4P)) (= arg7 arg6P))))
    (cfg_trans2 pc f1521_0_pollLast_NE pc1 f1712_0_remove_FieldAccess (exists ((x180 Int) (x181 Int) (x182 Int) (x184 Int) (x183 Int) (x185 Int)) (and (and (and (and (and (and (and (and (and (and (and (and (and (and (and (and (and (and (and (and (> arg2 (- 1)) (> x180 0)) (< x181 arg2)) (< x180 arg3)) (< x182 1)) (> arg3 (- 1))) (< x184 x183)) (> arg4 0)) (> x183 (- 1))) (< x185 x180)) (> x182 0)) (< arg3P 1)) (> arg1 6)) (> arg1P 7)) (> arg2P 4)) (<= (+ arg4 5) arg1)) (<= (+ arg5 7) arg1)) (<= (+ arg7 3) arg1)) (<= (+ arg6 7) arg1)) (= arg4 arg4P)) (= arg7 arg6P))))
    (cfg_trans2 pc f1521_0_pollLast_NE pc1 f1712_0_remove_FieldAccess (exists ((x199 Int) (x200 Int) (x201 Int) (x202 Int) (x203 Int)) (and (and (and (and (and (and (and (and (and (and (and (and (and (and (and (and (and (and (and (> arg2 (- 1)) (> x199 0)) (< x200 arg2)) (< x199 arg3)) (> arg3 (- 1))) (< x201 0)) (> arg4 0)) (< x202 0)) (> x200 0)) (< arg3P 1)) (< x203 x199)) (> arg1 6)) (> arg1P 7)) (> arg2P 4)) (<= (+ arg4 5) arg1)) (<= (+ arg5 7) arg1)) (<= (+ arg7 3) arg1)) (<= (+ arg6 7) arg1)) (= arg4 arg4P)) (= arg7 arg6P))))
    (cfg_trans2 pc f1521_0_pollLast_NE pc1 f1722_0_remove_FieldAccess (exists ((x220 Int) (x219 Int) (x221 Int) (x222 Int) (x223 Int)) (and (and (and (and (and (and (and (and (and (and (and (and (and (and (and (and (and (> x220 0) (> x219 0)) (> arg2 (- 1))) (< x221 arg2)) (< x220 arg3)) (> arg3 (- 1))) (> arg4 0)) (> x222 0)) (< x223 x219)) (> x220 x219)) (> arg1 6)) (> arg1P 4)) (> arg2P (- 1))) (> arg3P 2)) (<= (+ arg4 5) arg1)) (<= (+ arg5 7) arg1)) (<= (+ arg7 3) arg1)) (<= (+ arg6 7) arg1))))
    (cfg_trans2 pc f1722_0_remove_FieldAccess pc1 f1734_0_remove_FieldAccess (and (and (and (and (and (and (and (and (and (and (and (and (and (and (and (and (and (and (and (and (and (and (and (and (and (and (and (and (and (and (and (and (and (and (and (<= (+ arg1P 4) arg1) (<= arg1P arg2)) (<= (+ arg1P 2) arg3)) (<= arg3P arg1)) (<= arg4P arg2)) (<= arg5P arg3)) (> arg1 4)) (> arg2 0)) (> arg3 2)) (> arg1P 0)) (> arg2P 5)) (> arg3P 4)) (> arg4P 0)) (> arg5P 2)) (<= (+ arg4 5) arg1)) (<= (+ arg5 4) arg1)) (<= (+ arg16P 6) arg1)) (<= (+ arg17P 6) arg1)) (<= (+ arg18P 6) arg1)) (<= (+ arg6 2) arg1)) (<= (+ arg20P 4) arg1)) (<= (+ arg21P 4) arg1)) (<= (+ arg22P 4) arg1)) (<= (+ arg23P 2) arg2)) (<= (+ arg24P 2) arg2)) (<= (+ arg25P 2) arg2)) (<= (+ arg7 3) arg3)) (<= (+ arg8 2) arg3)) (<= (+ arg28P 4) arg3)) (<= (+ arg30P 4) arg3)) (<= (+ arg29P 4) arg3)) (= arg4 arg14P)) (= arg5 arg15P)) (= arg6 arg19P)) (= arg7 arg26P)) (= arg8 arg27P)))
    (cfg_trans2 pc f1712_0_remove_FieldAccess pc1 f1753_0_remove_FieldAccess (and (and (and (and (and (and (and (and (and (and (and (and (and (and (and (and (and (and (and (and (and (and (and (and (and (and (and (and (and (and (and (and (and (<= (+ arg1P 7) arg1) (> arg3 0)) (<= (+ arg1P 4) arg2)) (<= arg2P arg1)) (<= arg3P arg2)) (> arg1 7)) (> arg2 4)) (> arg1P 0)) (> arg2P 7)) (> arg3P 4)) (> arg4P 0)) (> arg5P 2)) (<= (+ arg4 5) arg1)) (<= (+ arg10P 8) arg1)) (<= (+ arg5 7) arg1)) (<= (+ arg12P 9) arg1)) (<= (+ arg13P 9) arg1)) (<= (+ arg14P 9) arg1)) (<= (+ arg6 3) arg1)) (<= (+ arg16P 5) arg2)) (<= (+ arg7 4) arg2)) (<= (+ arg18P 6) arg2)) (<= (+ arg19P 6) arg2)) (<= (+ arg20P 6) arg2)) (<= (+ arg8 2) arg2)) (<= (+ arg22P 4) arg2)) (<= (+ arg24P 4) arg2)) (<= (+ arg23P 4) arg2)) (= arg3 arg7P)) (= arg4 arg9P)) (= arg5 arg11P)) (= arg6 arg15P)) (= arg7 arg17P)) (= arg8 arg21P)))
    (cfg_trans2 pc f1712_0_remove_FieldAccess pc1 f1755_0_remove_FieldAccess (and (and (and (and (and (and (and (and (and (and (and (and (and (and (and (and (and (and (and (and (and (and (and (and (and (and (and (and (and (and (and (and (and (<= (+ arg1P 9) arg1) (<= (+ arg1P 4) arg2)) (<= arg2P arg1)) (<= arg3P arg2)) (> arg1 9)) (> arg2 4)) (> arg1P 0)) (> arg2P 9)) (> arg3P 4)) (> arg4P 0)) (> arg5P 4)) (<= (+ arg4 5) arg1)) (<= (+ arg8P 9) arg1)) (<= (+ arg9P 11) arg1)) (<= (+ arg10P 11) arg1)) (<= (+ arg11P 11) arg1)) (<= (+ arg5 7) arg1)) (<= (+ arg13P 9) arg1)) (<= (+ arg14P 9) arg1)) (<= (+ arg15P 9) arg1)) (<= (+ arg6 3) arg1)) (<= (+ arg7 4) arg2)) (<= (+ arg26P 6) arg2)) (<= (+ arg27P 6) arg2)) (<= (+ arg28P 6) arg2)) (<= (+ arg8 2) arg2)) (<= (+ arg19P 4) arg2)) (<= (+ arg21P 4) arg2)) (<= (+ arg20P 4) arg2)) (= arg4 arg7P)) (= arg5 arg12P)) (= arg6 arg16P)) (= arg7 arg17P)) (= arg8 arg18P)))
    (cfg_trans2 pc f1_0_main_Load pc1 f316_0_createList_Load (and (and (and (and (and (and (and (> arg1P (- 1)) (> arg2 0)) (<= (- arg2P 7) arg1)) (> arg1 0)) (> arg2P 7)) (= 1 arg5P)) (= 0 arg6P)) (= 0 arg7P)))
    (cfg_trans2 pc f821_0_createList_Load pc1 f1495_0_createList_LE (and (and (and (and (and (and (and (and (and (and (and (and (and (and (and (and (and (and (and (and (and (and (and (and (and (> arg2 11) (> arg1P 11)) (<= (+ arg20 5) arg2)) (<= (+ arg21 9) arg2)) (<= (+ arg22 9) arg2)) (<= (+ arg23 3) arg2)) (= arg1 arg2P)) (= arg13 arg3P)) (= arg11 arg4P)) (= arg7 arg5P)) (= arg12 arg6P)) (= arg6 arg7P)) (= arg3 arg9P)) (= arg14 arg10P)) (= arg5 arg11P)) (= 0 arg12P)) (= arg4 arg13P)) (= arg8 arg14P)) (= arg9 arg15P)) (= arg10 arg16P)) (= arg15 arg17P)) (= arg16 arg18P)) (= arg17 arg19P)) (= arg19 arg20P)) (= arg20 arg21P)) (= arg23 arg25P)))
    (cfg_trans2 pc f1495_0_createList_LE pc1 f1495_0_createList_LE (exists ((x363 Int) (x404 Int)) (and (and (and (and (and (and (and (and (and (and (and (and (and (and (and (and (and (and (and (and (and (and (and (and (and (and (and (and (and (and (and (and (and (and (and (and (and (and (> arg2 0) (> x363 (- 1))) (> arg6 0)) (> arg3 0)) (> arg20 (- 1))) (< arg20 x363)) (> arg10 0)) (> arg4 0)) (> arg13 0)) (> arg11 0)) (> arg12 0)) (> x404 (- 1))) (> arg9 0)) (> arg5 0)) (> arg18 0)) (> arg14 0)) (> arg19 0)) (> arg17 0)) (> arg15 0)) (> arg16 0)) (> arg25 (- 1))) (> arg21 (- 1))) (> arg1 9)) (> arg1P 9)) (<= (+ arg21 5) arg1)) (<= (+ arg22 9) arg1)) (<= (+ arg23 9) arg1)) (<= (+ arg25 3) arg1)) (<= (+ arg24 9) arg1)) (= (- arg2 1) arg2P)) (= arg3 arg3P)) (= arg6 arg6P)) (= arg7 arg7P)) (= arg8 arg8P)) (= arg10 arg10P)) (= arg12 arg12P)) (= (+ arg20 1) arg20P)) (= (+ arg21 1) arg21P)) (= (+ arg25 1) arg25P))))
    (cfg_trans2 pc f1495_0_createList_LE pc1 f1495_0_createList_LE (exists ((x405 Int) (x440 Int)) (and (and (and (and (and (and (and (and (and (and (and (and (and (and (and (and (and (and (and (and (and (and (and (and (and (and (and (and (and (and (and (and (and (and (and (and (and (> arg2 0) (> x405 (- 1))) (> arg6 0)) (> arg3 0)) (> arg20 (- 1))) (< arg20 x405)) (> arg10 0)) (> arg12 0)) (> x440 (- 1))) (> arg18 0)) (> arg19 0)) (> arg17 0)) (> arg8 0)) (> arg25 (- 1))) (> arg21 (- 1))) (> arg1 11)) (> arg1P 13)) (<= (+ arg21 5) arg1)) (<= (+ arg22 9) arg1)) (<= (+ arg23 9) arg1)) (<= (+ arg24 9) arg1)) (<= (+ arg25 3) arg1)) (= arg8 arg9)) (= arg10 arg11)) (= arg12 arg13)) (= arg7 arg16)) (= (- arg2 1) arg2P)) (= 0 arg3P)) (= 1 arg4P)) (= 1 arg5P)) (= arg8 arg8P)) (= arg10 arg10P)) (= arg12 arg12P)) (= 0 arg13P)) (= 2 arg14P)) (= (+ arg20 1) arg20P)) (= (+ arg21 1) arg21P)) (= (+ arg25 1) arg25P))))
    (cfg_trans2 pc __init pc1 f1_0_main_Load true)
  )
)
